 &control
    calculation     = 'nscf'
    prefix          = 'GaAs'
    restart_mode    = 'from_scratch'
    wf_collect      = .true.
    pseudo_dir      = '../../pp/'
    outdir          = './tmp_dir/'
    verbosity       = 'high'
    tprnfor         = .true.
    tstress         = .true.
    etot_conv_thr   = 1d-7
    forc_conv_thr   = 1d-6
 /
 &system
    a               = 5.55
    space_group     = 216
    nat             = 2
    ntyp            = 2
    ecutwfc         = 50
    occupations     = 'fixed'
    nbnd            = 8
 /
 &electrons
    startingpot     = 'file'
    conv_thr        = 1.0d-10
 /
 &ions
 /
 &cell
    press_conv_thr  = 0.001
 /
ATOMIC_SPECIES
 Ga 69.723   Ga.pw-mt_fhi.UPF
 As 74.9216  As.pw-mt_fhi.UPF
ATOMIC_POSITIONS crystal_sg
  Ga    0.00000000000  0.00000000000  0.00000000000
  As    0.25000000000  0.25000000000  0.25000000000
K_POINTS AUTOMATIC
24 24 24 0 0 0
