&input fildyn='GaAs.dyn1', asr='crystal', lfroh = .true., nmesh = 100/
